c instance by G2
c solution = 01000111010000100100101
c Known solution cost is 1181 
p cnf 23 30
w 80 95 44 46 4 39 59 47 92 17 41 82 87 13 16 64 26 93 45 3 32 64 92
22 -13 12 0
-17 -23 19 0
-9 19 -8 0
-13 19 8 0
-2 17 18 0
2 22 11 0
20 22 21 0
-13 -4 -12 0
-1 19 -21 0
-10 4 -22 0
-14 -18 4 0
-21 4 15 0
-11 -21 -15 0
1 -18 10 0
11 4 6 0
-18 -16 -21 0
-4 -2 -13 0
23 19 -2 0
-5 3 -10 0
14 13 -19 0
-19 2 18 0
7 -10 12 0
-2 10 5 0
-7 3 23 0
-12 19 20 0
-20 12 -10 0
-4 19 -23 0
-14 -7 -10 0
-3 13 -2 0
22 8 -6 0
